NAME : rnd21_50.tsp
TYPE : TSP
DIMENSION : 50
EDGE_WEIGHT_TYPE : EUC_2D
NODE_COORD_SECTION
1 861 84
2 639 996
3 280 611
4 559 226
5 110 780
6 755 508
7 875 131
8 4 678
9 367 28
10 415 764
11 190 828
12 358 38
13 988 744
14 825 181
15 626 200
16 252 161
17 469 810
18 923 893
19 123 493
20 305 515
21 317 705
22 95 278
23 431 389
24 182 705
25 799 60
26 37 331
27 797 446
28 298 37
29 206 477
30 23 583
31 23 512
32 299 523
33 660 456
34 918 618
35 242 664
36 103 553
37 980 701
38 166 112
39 510 904
40 871 623
41 743 619
42 959 463
43 125 507
44 443 69
45 667 354
46 392 540
47 195 655
48 821 921
49 93 370
50 801 820
